c Random generated cnf formula, satisfiable: true
p cnf 10 50
-5 -8 1 0
-1 -9 -6 0
7 -1 10 0
8 7 1 0
-2 -5 -4 0
5 -6 -9 0
8 -9 3 0
4 -5 -7 0
-4 10 1 0
-5 6 9 0
-2 5 -7 0
1 9 3 0
-7 9 -10 0
-9 10 3 0
3 -9 8 0
4 -8 10 0
10 -6 -5 0
-6 -9 1 0
4 -2 -9 0
-3 -7 10 0
4 6 -10 0
-2 1 9 0
1 5 -9 0
8 -5 6 0
1 -9 6 0
2 9 -3 0
-7 4 2 0
6 -1 -8 0
7 -5 4 0
-2 -8 4 0
10 -4 -7 0
-9 1 3 0
-6 9 -2 0
9 -10 -6 0
-5 -10 -6 0
4 -3 8 0
-10 1 3 0
1 -9 2 0
-9 2 -5 0
10 -2 -5 0
9 -10 3 0
-4 8 -9 0
6 3 -2 0
-10 4 -3 0
-5 7 -2 0
-1 -7 6 0
4 -5 2 0
-2 5 4 0
2 -7 -9 0
2 9 5 0
